51660
20,137,181,226,355,560,570,830,1143,1183,1193,1213,1247,1289,1361,1457,1633,2069,2071,2133,2305,2365,2504,2516,2538,2539,2552,2554,2601,2720,2770,2839,2866,2871,2953,3016,3032,3035,3041,3167,3187,3216,3241,3242,3316,3329,3355,3477,3514,3562,3599,3648,3709,3713,3747,3893,4226,4301,4441,4544,4660,4787,4888,4937,4949,4986,5024,5079,5106,5153,5223,5274,5286,5292,5333,5576,5691,5844,5855,5914,6017,6038,6173,6252,6292,6376,6548,6595,6602,6611,6618,6774,6837,6884,6992,7007,7068,7117,7381,7479,7557,7635,7740,7886,7910,7926,8156,8169,8288,8377,8478,8500,8529,8543,8557,8579,8583,8645,8799,8807,8823,8961,9094,9117,9132,9180,9182,9189,9272,9333,9346,9447,9645
